1
769 946 680  768
15
524 740 760  157 258
329 746 304  161 83
404 392 158  97 95
63 308 336  113 200
249 242 26  201 24
499 690 426  170 14
2 392 82  171 197
121 180 17  53 114
186 752 388  88 138
152 567 541  99 17
72 628 155  290 237
138 618 284  102 163
341 463 233  103 56
198 165 464  86 73
328 680 526  221 220
